p cnf 21 9
a 1 2 0
e 3 0
a 4 5 6 0
e 7 8 9 10 0
a 11 0
e 12 0
a 13 14 0
e 15 16 0
a 17 0
e 18 0
a 19 0
e 20 0
a 21 0
-8 12 -10 0
-7 20 13 21 0
-18 20 17 21 0
-5 2 14 0
14 -6 -3 11 21 0
-11 -13 16 -6 -12 0
-19 15 -13 -8 0
6 -18 -16 0
16 14 4 -2 0
